
--- Job ReallocationNetwork.gms Start 09/18/21 23:30:13 36.1.0 r2c0a44a WEX-WEI x86 64bit/MS Windows
--- Applying:
    C:\GAMS\36\gmsprmNT.txt
    C:\Users\Erwin\Documents\GAMS\gamsconfig.yaml
--- GAMS Parameters defined
    Input D:\projects\OptimizationModels\Reallocation\ReallocationNetwork.gms
    PageWidth 120
    PageSize 0
    PageContr 3
    Action CE
    ScrDir D:\projects\OptimizationModels\Reallocation\225a\
    SysDir C:\GAMS\36\
    WorkDir D:\projects\OptimizationModels\Reallocation\
    LogOption 3
    DFormat 0
    TFormat 0
    ErrorLog 99
    IDE 1
    GDX D:\projects\OptimizationModels\Reallocation\x.gdx
Licensee: Eval License                                   S201210/0001CO-GEN
          Amsterdam Optimization Modeling Group,                     DCE378
          C:\Users\Erwin\Documents\GAMS\gamslice.txt
          Evaluation license: Not for commercial or production use
Processor information: 1 socket(s), 4 core(s), and 8 thread(s) available
GAMS 36.1.0   Copyright (C) 1987-2021 GAMS Development. All rights reserved
--- Starting compilation
--- ReallocationNetwork.gms(151) 3 Mb
--- Starting execution: elapsed 0:00:00.062
--- ReallocationNetwork.gms(137) 4 Mb
--- Generating LP model mincostflow
--- ReallocationNetwork.gms(141) 4 Mb
---   38 rows  85 columns  217 non-zeroes
--- Executing CPLEX (Solvelink=2): elapsed 0:00:00.103

IBM ILOG CPLEX   36.1.0 r2c0a44a Released Aug 02, 2021 WEI x86 64bit/MS Window

--- GAMS/Cplex Link licensed for continuous and discrete problems.
--- GMO setup time: 0.00s
--- GMO memory 0.51 Mb (peak 0.51 Mb)
--- Dictionary memory 0.00 Mb
--- Cplex 20.1.0.1 link memory 0.00 Mb (peak 0.01 Mb)
--- Starting Cplex

Version identifier: 20.1.0.1 | 2021-04-07 | 3a818710c
CPXPARAM_Advance                                 0
CPXPARAM_Threads                                 1
CPXPARAM_MIP_Display                             4
CPXPARAM_MIP_Tolerances_AbsMIPGap                0
Tried aggregator 1 time.
LP Presolve eliminated 0 rows and 1 columns.
Aggregator did 16 substitutions.
Reduced LP has 21 rows, 68 columns, and 136 nonzeros.
Presolve time = 0.00 sec. (0.06 ticks)
Initializing dual steep norms . . .

Iteration log . . .
Iteration:     1   Dual objective     =            11.800000

--- LP status (1): optimal.
--- Cplex Time: 0.00sec (det. 0.10 ticks)


Optimal solution found
Objective:           12.400000

--- Reading solution for model mincostflow
--- Executing after solve: elapsed 0:00:00.538
--- ReallocationNetwork.gms(150) 4 Mb
--- GDX File D:\projects\OptimizationModels\Reallocation\x.gdx
*** Status: Normal completion
--- Job ReallocationNetwork.gms Stop 09/18/21 23:30:14 elapsed 0:00:00.547
